(set-logic QF_S)
(set-option :parse-transducers true)
(set-option :produce-models true)
(define-fun-rec toLower ((x String) (y String)) Bool
   (or (and (= x "") (= y ""))
       (and (not (= x "")) (not (= y ""))
           (= (char.code (str.head y))
               (ite (and (<= 65 (char.code (str.head x)))
                       (<= (char.code (str.head x)) 90))
                   (+ (char.code (str.head x)) 32)
                   (char.code (str.head x))))
           (toLower (str.tail x) (str.tail y))))
)
(declare-fun sym1669 () String)
(declare-fun sym1985 () String)
(declare-fun sym1028 () String)
(declare-fun sym1896 () String)
(declare-fun sym1453 () String)
(declare-fun sym1244 () String)
(declare-fun sym205 () String)
(declare-fun sym547 () String)
(declare-fun sym812 () String)
(declare-fun sym161 () String)
(declare-fun L12  () String)
(declare-fun L14  () String)
(declare-fun L7  () String)
(declare-fun L5  () String)
(declare-fun L6  () String)
(declare-fun L3  () String)
(declare-fun L4  () String)
(declare-fun L1  () String)
(declare-fun L0  () String)
(assert (toLower (str.substr sym1453  0 1) L0 ))
(assert (toLower (str.substr sym1985  0 1) L1 ))
(assert (toLower (str.substr sym1669  0 1) L4 ))
(assert (toLower (str.substr sym1028  0 1) L3 ))
(assert (toLower (str.substr sym812  0 1) L6 ))
(assert (toLower (str.substr sym1244  0 1) L5 ))
(assert (toLower (str.substr sym1896  0 1) L7 ))
(assert (toLower (str.substr sym547  0 1) L14 ))
(assert (toLower (str.substr sym205  0 1) L12 ))

(assert (not (= L0 "q" )))
(assert (not (= L1 "y" )))
(assert (not (= L0 "k" )))
(assert (not (= "" "y" )))
(assert (not (= "y" "n" )))
(assert (not (= "n" "y" )))
(assert (= L3 "g" ))
(assert (not (= L4 "k" )))
(assert (not (= L5 "k" )))
(assert (not (= "" sym1669 )))
(assert (not (= "" "n" )))
(assert (= L6 "g" ))
(assert (not (= "" sym1028 )))
(assert (not (= L7 "r" )))
(assert (not (= "" sym1244 )))
(assert (= L5 "g" ))
(assert (not (= L6 "q" )))
(assert (not (= L4 "q" )))
(assert (not (= L7 "l" )))
(assert (not (= "" L12 )))
(assert (= "y" "y" ))
(assert (not (= "" sym812 )))
(assert (not (= "" "y" )))
(assert (not (= "" sym205 )))
(assert (not (= "" "q" )))
(assert (not (= L5 "p" )))
(assert (not (= L14 "p" )))
(assert (= L7 "q" ))
(assert (= "" "" ))
(assert (= L12 "y" ))
(assert (not (= "" sym1896 )))
(assert (not (= L7 "p" )))
(assert (not (= L0 "p" )))
(assert (not (= "" L1 )))
(assert (not (= L3 "p" )))
(assert (not (= L5 "q" )))
(assert (not (= L7 "h" )))
(assert (= L14 "g" ))
(assert (not (= L4 "p" )))
(assert (= L7 "q" ))
(assert (not (= L7 "k" )))
(assert (not (= "" sym547 )))
(assert (= L0 "g" ))
(assert (not (= L3 "q" )))
(assert (not (= L6 "p" )))
(assert (not (= L7 "g" )))
(assert (= L7 "q" ))
(assert (not (= L6 "k" )))
(assert (not (= L14 "q" )))
(assert (= L4 "g" ))
(assert (not (= "" sym161 )))
(assert (not (= "" sym1985 )))
(assert (not (= L3 "k" )))
(assert (not (= L14 "k" )))
(assert (not (= "" sym1453 )))
(check-sat)
(get-model)
(exit)
